Instance: Data/Instances_txt/inst_100_50_2.txt
SetUpTime: 346.77719807624817

Gurobi 10.0.1 (mac64[x86]) logging started Di  1 Aug 19:17:47 2023

Set parameter LogFile to value "Output/MILP_inst_100_50_2_2023-08-01_16-28-50.txt"
Set parameter TimeLimit to value 2700

Gurobi 10.0.1 (mac64[x86]) logging started Di  1 Aug 19:17:47 2023

Set parameter LogFile to value "Output/MILP_inst_100_50_2_2023-08-01_16-28-50.txt"
Gurobi Optimizer version 10.0.1 build v10.0.1rc0 (mac64[x86])

CPU model: Intel(R) Core(TM) i5-1038NG7 CPU @ 2.00GHz
Thread count: 4 physical cores, 8 logical processors, using up to 8 threads

Optimize a model with 201 rows, 190707 columns and 2191620 nonzeros
Model fingerprint: 0xb2d73e8f
Variable types: 0 continuous, 190707 integer (0 binary)
Coefficient statistics:
  Matrix range     [1e+00, 1e+00]
  Objective range  [4e+00, 1e+04]
  Bounds range     [1e+00, 1e+00]
  RHS range        [1e+00, 1e+00]
Presolve removed 0 rows and 0 columns (presolve time = 5s) ...
Presolve removed 0 rows and 325 columns
Presolve time: 7.30s
Presolved: 201 rows, 190382 columns, 2187067 nonzeros
Variable types: 0 continuous, 190382 integer (190382 binary)

Root simplex log...

Iteration    Objective       Primal Inf.    Dual Inf.      Time
       0    0.0000000e+00   1.020000e+02   0.000000e+00      9s

Starting sifting (using dual simplex for sub-problems)...

    Iter     Pivots    Primal Obj      Dual Obj        Time
       0          0     infinity      0.0000000e+00      9s
       1       1159   1.0200000e+08   1.9800632e+02      9s
       2       2251   9.6900329e+07   2.6681354e+03      9s
       3       3360   9.1800660e+07   3.2381503e+03      9s
       4       4610   8.1839167e+07   3.8040301e+03      9s
       5       7154   7.6502772e+07   4.0564302e+03      9s
       6       8559   7.6502718e+07   4.1999574e+03      9s
       7       9584   6.4249128e+07   4.5093461e+03      9s
       8      11250   5.7168505e+07   5.1066595e+03      9s
       9      13583   5.1008682e+07   4.7907039e+03      9s
      10      15210   5.1008129e+07   5.0947120e+03      9s
      11      16824   5.1008129e+07   5.1755045e+03     10s
      12      18042   4.6237922e+07   5.6725646e+03     10s
      13      20736   4.2321774e+07   6.0053482e+03     10s
      14      23799   3.5576519e+07   6.1740614e+03     10s
      15      25976   2.9466118e+07   6.7254060e+03     10s
      16      28652   1.9564860e+07   7.3540665e+03     11s
      17      31303   1.1470558e+07   7.7109743e+03     11s
      18      34704   6.8994199e+06   7.7597280e+03     11s
      19      37673   8.6827213e+05   7.7808087e+03     11s
      20      39746   2.6395307e+04  -7.9798575e+04     12s
      21      41278   2.5164985e+04  -6.6908422e+04     12s
      22      43058   2.3432399e+04  -6.1442824e+04     12s
      23      45067   2.2386625e+04  -5.3467740e+04     12s
      24      47208   2.0830354e+04  -3.4325819e+04     13s
      25      49031   2.0141010e+04  -1.7541175e+04     13s
      26      50951   1.9800074e+04  -3.2889071e+03     13s
      27      52661   1.9307529e+04   8.5907295e+03     14s
      28      54415   1.9210088e+04   1.6577936e+04     14s
      29      55263   1.9207939e+04   1.8930585e+04     14s

Sifting complete

   55769    2.0207711e+04   0.000000e+00   0.000000e+00     14s

Root relaxation: objective 2.020771e+04, 55769 iterations, 5.84 seconds (8.79 work units)

    Nodes    |    Current Node    |     Objective Bounds      |     Work
 Expl Unexpl |  Obj  Depth IntInf | Incumbent    BestBd   Gap | It/Node Time

     0     0 20207.7110    0  130          - 20207.7110      -     -   17s
     0     0 20215.8482    0  142          - 20215.8482      -     -   18s
     0     0 20215.8482    0  142          - 20215.8482      -     -   29s
     0     0 20293.4716    0  149          - 20293.4716      -     -   86s
     0     0 20294.9800    0  147          - 20294.9800      -     -   88s
     0     0 20296.3338    0  138          - 20296.3338      -     -   89s
     0     0 20297.2556    0  141          - 20297.2556      -     -   90s
     0     0 20298.1964    0  136          - 20298.1964      -     -   91s
     0     0 20298.7092    0  148          - 20298.7092      -     -   91s
     0     0 20299.2650    0  143          - 20299.2650      -     -   92s
     0     0 20299.6861    0  143          - 20299.6861      -     -   92s
     0     0 20300.0242    0  145          - 20300.0242      -     -   93s
     0     0 20300.4249    0  146          - 20300.4249      -     -   93s
     0     0 20300.6694    0  133          - 20300.6694      -     -   93s
     0     0 20424.9229    0  194          - 20424.9229      -     -  121s
     0     0 20428.5267    0  194          - 20428.5267      -     -  124s
     0     0 20430.0674    0  190          - 20430.0674      -     -  126s
     0     0 20431.1573    0  191          - 20431.1573      -     -  127s
     0     0 20431.7361    0  192          - 20431.7361      -     -  128s
     0     0 20432.2659    0  191          - 20432.2659      -     -  129s
     0     0 20432.6347    0  190          - 20432.6347      -     -  130s
     0     0 20433.2322    0  194          - 20433.2322      -     -  132s
     0     0 20433.4619    0  199          - 20433.4619      -     -  133s
     0     0 20433.8580    0  193          - 20433.8580      -     -  134s
     0     0 20434.0722    0  188          - 20434.0722      -     -  134s
     0     0 20434.7570    0  189          - 20434.7570      -     -  136s
     0     0 20435.1855    0  185          - 20435.1855      -     -  137s
     0     0 20435.6677    0  189          - 20435.6677      -     -  138s
     0     0 20435.9788    0  185          - 20435.9788      -     -  139s
     0     0 20436.1493    0  189          - 20436.1493      -     -  139s
     0     0 20436.4367    0  189          - 20436.4367      -     -  140s
     0     0 20436.6941    0  184          - 20436.6941      -     -  141s
     0     0 20436.9306    0  190          - 20436.9306      -     -  142s
     0     0 20437.1631    0  191          - 20437.1631      -     -  142s
     0     0 20437.2969    0  190          - 20437.2969      -     -  143s
     0     0 20437.5246    0  190          - 20437.5246      -     -  143s
     0     0 20437.5716    0  195          - 20437.5716      -     -  144s
     0     0 20437.6998    0  193          - 20437.6998      -     -  145s
     0     0 20437.7821    0  193          - 20437.7821      -     -  145s
     0     0 20437.9034    0  193          - 20437.9034      -     -  146s
     0     0 20438.0674    0  192          - 20438.0674      -     -  146s
     0     0 20438.1580    0  192          - 20438.1580      -     -  147s
     0     0 20438.2812    0  190          - 20438.2812      -     -  147s
     0     0 20438.4384    0  192          - 20438.4384      -     -  148s
     0     0 20438.5193    0  195          - 20438.5193      -     -  148s
     0     0 20438.6268    0  189          - 20438.6268      -     -  149s
     0     0 20438.7166    0  188          - 20438.7166      -     -  149s
     0     0 20491.2460    0  226          - 20491.2460      -     -  169s
     0     0 20493.5674    0  223          - 20493.5674      -     -  172s
     0     0 20495.0012    0  221          - 20495.0012      -     -  173s
     0     0 20495.8704    0  224          - 20495.8704      -     -  175s
     0     0 20496.9204    0  219          - 20496.9204      -     -  176s
     0     0 20497.8498    0  221          - 20497.8498      -     -  178s
     0     0 20498.5322    0  218          - 20498.5322      -     -  179s
     0     0 20499.0192    0  220          - 20499.0192      -     -  181s
     0     0 20499.3849    0  221          - 20499.3849      -     -  182s
     0     0 20499.7227    0  220          - 20499.7227      -     -  183s
     0     0 20499.9791    0  224          - 20499.9791      -     -  183s
     0     0 20500.2229    0  216          - 20500.2229      -     -  188s
     0     0 20500.6032    0  223          - 20500.6032      -     -  189s
     0     0 20501.0016    0  217          - 20501.0016      -     -  190s
     0     0 20501.2019    0  219          - 20501.2019      -     -  191s
     0     0 20501.3623    0  217          - 20501.3623      -     -  192s
     0     0 20501.6692    0  220          - 20501.6692      -     -  193s
     0     0 20501.8786    0  217          - 20501.8786      -     -  194s
     0     0 20502.0216    0  220          - 20502.0216      -     -  195s
     0     0 20502.0812    0  223          - 20502.0812      -     -  195s
     0     0 20502.1994    0  224          - 20502.1994      -     -  196s
     0     0 20502.2812    0  223          - 20502.2812      -     -  197s
     0     0 20502.4016    0  225          - 20502.4016      -     -  197s
     0     0 20502.5787    0  222          - 20502.5787      -     -  198s
     0     0 20502.7369    0  223          - 20502.7369      -     -  199s
     0     0 20502.8137    0  224          - 20502.8137      -     -  200s
     0     0 20502.9130    0  225          - 20502.9130      -     -  200s
     0     0 20503.0160    0  223          - 20503.0160      -     -  201s
     0     0 20503.1558    0  227          - 20503.1558      -     -  202s
     0     0 20503.3006    0  228          - 20503.3006      -     -  203s
     0     0 20503.3993    0  228          - 20503.3993      -     -  203s
     0     0 20503.4754    0  222          - 20503.4754      -     -  204s
     0     0 20503.5434    0  224          - 20503.5434      -     -  204s
     0     0 20536.0922    0  241          - 20536.0922      -     -  217s
     0     0 20536.5678    0  246          - 20536.5678      -     -  219s
     0     0 20536.8839    0  244          - 20536.8839      -     -  220s
     0     0 20536.9972    0  242          - 20536.9972      -     -  221s
     0     0 20537.1284    0  246          - 20537.1284      -     -  222s
     0     0 20537.1865    0  241          - 20537.1865      -     -  223s
     0     0 20537.2560    0  241          - 20537.2560      -     -  224s
     0     0 20537.2793    0  242          - 20537.2793      -     -  224s
     0     0 20537.3130    0  237          - 20537.3130      -     -  225s
     0     0 20537.3335    0  236          - 20537.3335      -     -  225s
     0     0 20537.3455    0  242          - 20537.3455      -     -  226s
H    0     0                    30629.000000 20537.3455  32.9%     -  226s
     0     0 20537.3732    0  240 30629.0000 20537.3732  32.9%     -  335s
     0     0 20537.3807    0  239 30629.0000 20537.3807  32.9%     -  335s
     0     0 20537.3917    0  245 30629.0000 20537.3917  32.9%     -  336s
     0     0 20537.4040    0  240 30629.0000 20537.4040  32.9%     -  336s
     0     0 20537.4254    0  239 30629.0000 20537.4254  32.9%     -  336s
     0     0 20537.4382    0  242 30629.0000 20537.4382  32.9%     -  337s
     0     0 20537.4496    0  241 30629.0000 20537.4496  32.9%     -  337s
     0     0 20537.4549    0  242 30629.0000 20537.4549  32.9%     -  337s
     0     0 20537.4667    0  241 30629.0000 20537.4667  32.9%     -  338s
     0     0 20537.4721    0  242 30629.0000 20537.4721  32.9%     -  338s
     0     0 20537.4897    0  246 30629.0000 20537.4897  32.9%     -  338s
     0     0 20537.6001    0  243 30629.0000 20537.6001  32.9%     -  339s
     0     0 20537.6268    0  236 30629.0000 20537.6268  32.9%     -  340s
     0     0 20537.6396    0  240 30629.0000 20537.6396  32.9%     -  340s
     0     0 20537.6478    0  242 30629.0000 20537.6478  32.9%     -  341s
     0     0 20537.6538    0  236 30629.0000 20537.6538  32.9%     -  341s
     0     0 20537.6613    0  246 30629.0000 20537.6613  32.9%     -  341s
     0     0 20537.6681    0  246 30629.0000 20537.6681  32.9%     -  341s
     0     0 20537.6736    0  242 30629.0000 20537.6736  32.9%     -  342s
     0     0 20537.6824    0  240 30629.0000 20537.6824  32.9%     -  342s
     0     0 20537.6852    0  245 30629.0000 20537.6852  32.9%     -  342s
     0     0 20537.6884    0  243 30629.0000 20537.6884  32.9%     -  342s
     0     0 20562.0820    0  267 30629.0000 20562.0820  32.9%     -  355s
     0     0 20562.4209    0  266 30629.0000 20562.4209  32.9%     -  357s
     0     0 20562.5086    0  272 30629.0000 20562.5086  32.9%     -  358s
     0     0 20562.5788    0  272 30629.0000 20562.5788  32.9%     -  359s
     0     0 20562.6314    0  270 30629.0000 20562.6314  32.9%     -  360s
     0     0 20562.6630    0  272 30629.0000 20562.6630  32.9%     -  360s
     0     0 20562.6860    0  271 30629.0000 20562.6860  32.9%     -  361s
     0     0 20562.6966    0  270 30629.0000 20562.6966  32.9%     -  361s
     0     0 20562.6998    0  270 30629.0000 20562.6998  32.9%     -  362s
     0     0 20562.7143    0  270 30629.0000 20562.7143  32.9%     -  362s
     0     0 20562.7202    0  267 30629.0000 20562.7202  32.9%     -  362s
H    0     0                    21947.000000 20562.7202  6.31%     -  363s
H    0     0                    21503.000000 20562.7202  4.37%     -  397s
     0     0 20563.9344    0  266 21503.0000 20563.9344  4.37%     -  399s
     0     0 20564.0164    0  267 21503.0000 20564.0164  4.37%     -  400s
     0     0 20564.0594    0  269 21503.0000 20564.0594  4.37%     -  400s
     0     0 20564.0810    0  273 21503.0000 20564.0810  4.37%     -  401s
     0     0 20564.0959    0  270 21503.0000 20564.0959  4.37%     -  401s
     0     0 20564.1058    0  271 21503.0000 20564.1058  4.37%     -  402s
     0     0 20564.1106    0  270 21503.0000 20564.1106  4.37%     -  402s
     0     0 20564.1118    0  273 21503.0000 20564.1118  4.37%     -  402s
     0     0 20564.1150    0  270 21503.0000 20564.1150  4.37%     -  403s
     0     0 20564.1174    0  270 21503.0000 20564.1174  4.37%     -  403s
     0     0 20564.1179    0  268 21503.0000 20564.1179  4.37%     -  403s
     0     0 20564.2827    0  273 21503.0000 20564.2827  4.37%     -  404s
     0     0 20564.2887    0  272 21503.0000 20564.2887  4.37%     -  404s
     0     0 20564.2901    0  273 21503.0000 20564.2901  4.37%     -  404s
     0     0 20564.2923    0  271 21503.0000 20564.2923  4.37%     -  405s
     0     0 20564.2931    0  272 21503.0000 20564.2931  4.37%     -  405s
     0     0 20564.2951    0  271 21503.0000 20564.2951  4.37%     -  405s
     0     0 20564.2960    0  268 21503.0000 20564.2960  4.37%     -  405s
     0     0 20564.2967    0  271 21503.0000 20564.2967  4.37%     -  405s
     0     0 20564.2984    0  272 21503.0000 20564.2984  4.37%     -  406s
     0     0 20564.2996    0  272 21503.0000 20564.2996  4.37%     -  406s
     0     0 20564.3009    0  272 21503.0000 20564.3009  4.37%     -  406s
     0     0 20564.3868    0  271 21503.0000 20564.3868  4.37%     -  407s
     0     0 20564.3891    0  267 21503.0000 20564.3891  4.37%     -  407s
     0     0 20564.3925    0  271 21503.0000 20564.3925  4.37%     -  407s
     0     0 20564.3936    0  270 21503.0000 20564.3936  4.37%     -  407s
     0     0 20564.3987    0  273 21503.0000 20564.3987  4.36%     -  407s
     0     0 20564.4010    0  272 21503.0000 20564.4010  4.36%     -  408s
     0     0 20564.4034    0  271 21503.0000 20564.4034  4.36%     -  408s
     0     0 20564.4051    0  271 21503.0000 20564.4051  4.36%     -  408s
     0     0 20564.4073    0  272 21503.0000 20564.4073  4.36%     -  408s
     0     0 20564.4099    0  273 21503.0000 20564.4099  4.36%     -  408s
     0     0 20564.4127    0  271 21503.0000 20564.4127  4.36%     -  408s
     0     0 20577.1001    0  283 21503.0000 20577.1001  4.31%     -  417s
     0     0 20577.1001    0  137 21503.0000 20577.1001  4.31%     -  426s
     0     0 20577.1001    0  133 21503.0000 20577.1001  4.31%     -  427s
     0     0 20577.1001    0  134 21503.0000 20577.1001  4.31%     -  427s
     0     0 20577.1001    0  136 21503.0000 20577.1001  4.31%     -  428s
     0     0 20577.1001    0  123 21503.0000 20577.1001  4.31%     -  428s
     0     0 20577.1001    0  151 21503.0000 20577.1001  4.31%     -  429s
     0     0 20577.1001    0  156 21503.0000 20577.1001  4.31%     -  430s
     0     0 20577.1001    0  150 21503.0000 20577.1001  4.31%     -  430s
     0     0 20577.1001    0  148 21503.0000 20577.1001  4.31%     -  430s
     0     0 20577.1001    0  156 21503.0000 20577.1001  4.31%     -  431s
     0     0 20577.1001    0  156 21503.0000 20577.1001  4.31%     -  431s
     0     0 20577.1001    0  206 21503.0000 20577.1001  4.31%     -  455s
     0     0 20577.1001    0  205 21503.0000 20577.1001  4.31%     -  456s
     0     0 20577.1001    0  204 21503.0000 20577.1001  4.31%     -  457s
     0     0 20577.1001    0  201 21503.0000 20577.1001  4.31%     -  457s
     0     0 20577.1001    0  201 21503.0000 20577.1001  4.31%     -  458s
     0     0 20577.1001    0  198 21503.0000 20577.1001  4.31%     -  459s
     0     0 20577.1001    0  201 21503.0000 20577.1001  4.31%     -  459s
     0     0 20577.1001    0  199 21503.0000 20577.1001  4.31%     -  460s
     0     0 20577.1001    0  202 21503.0000 20577.1001  4.31%     -  460s
     0     0 20577.1001    0  201 21503.0000 20577.1001  4.31%     -  460s
     0     0 20577.1001    0  203 21503.0000 20577.1001  4.31%     -  460s
     0     0 20577.1001    0  227 21503.0000 20577.1001  4.31%     -  495s
     0     0 20577.1001    0  231 21503.0000 20577.1001  4.31%     -  496s
     0     0 20577.1001    0  227 21503.0000 20577.1001  4.31%     -  497s
     0     0 20577.1001    0  224 21503.0000 20577.1001  4.31%     -  498s
     0     0 20577.1001    0  226 21503.0000 20577.1001  4.31%     -  499s
     0     0 20577.1001    0  227 21503.0000 20577.1001  4.31%     -  500s
     0     0 20577.1001    0  222 21503.0000 20577.1001  4.31%     -  500s
     0     0 20577.1001    0  226 21503.0000 20577.1001  4.31%     -  501s
     0     0 20577.1001    0  226 21503.0000 20577.1001  4.31%     -  501s
     0     0 20577.1001    0  225 21503.0000 20577.1001  4.31%     -  501s
     0     0 20577.1001    0  225 21503.0000 20577.1001  4.31%     -  501s
     0     0 20577.1001    0  248 21503.0000 20577.1001  4.31%     -  509s
     0     0 20577.1001    0  250 21503.0000 20577.1001  4.31%     -  510s
     0     0 20577.1001    0  252 21503.0000 20577.1001  4.31%     -  511s
     0     0 20577.1001    0  252 21503.0000 20577.1001  4.31%     -  512s
     0     0 20577.1001    0  256 21503.0000 20577.1001  4.31%     -  513s
     0     0 20577.1001    0  256 21503.0000 20577.1001  4.31%     -  513s
     0     0 20577.1001    0  252 21503.0000 20577.1001  4.31%     -  514s
     0     0 20577.1001    0  252 21503.0000 20577.1001  4.31%     -  514s
     0     0 20577.1001    0  254 21503.0000 20577.1001  4.31%     -  514s
     0     0 20577.1001    0  252 21503.0000 20577.1001  4.31%     -  514s
     0     0 20577.1001    0  254 21503.0000 20577.1001  4.31%     -  514s
     0     0 20577.1001    0  278 21503.0000 20577.1001  4.31%     -  522s
     0     0 20577.1001    0  275 21503.0000 20577.1001  4.31%     -  524s
     0     0 20577.1001    0  277 21503.0000 20577.1001  4.31%     -  525s
     0     0 20577.1001    0  279 21503.0000 20577.1001  4.31%     -  526s
     0     0 20577.1001    0  273 21503.0000 20577.1001  4.31%     -  527s
     0     0 20577.1001    0  273 21503.0000 20577.1001  4.31%     -  527s
     0     0 20577.1001    0  278 21503.0000 20577.1001  4.31%     -  528s
     0     0 20577.1001    0  279 21503.0000 20577.1001  4.31%     -  528s
     0     0 20577.1001    0  278 21503.0000 20577.1001  4.31%     -  528s
     0     0 20577.1001    0  276 21503.0000 20577.1001  4.31%     -  529s
     0     0 20577.1001    0  277 21503.0000 20577.1001  4.31%     -  529s
     0     0 20577.8603    0  284 21503.0000 20577.8603  4.30%     -  532s
     0     0 20577.9307    0  279 21503.0000 20577.9307  4.30%     -  533s
     0     0 20577.9532    0  281 21503.0000 20577.9532  4.30%     -  533s
     0     0 20577.9685    0  280 21503.0000 20577.9685  4.30%     -  534s
     0     0 20577.9714    0  276 21503.0000 20577.9714  4.30%     -  534s
     0     0 20577.9759    0  279 21503.0000 20577.9759  4.30%     -  534s
     0     0 20577.9787    0  275 21503.0000 20577.9787  4.30%     -  535s
     0     0 20577.9806    0  278 21503.0000 20577.9806  4.30%     -  535s
     0     0 20577.9829    0  276 21503.0000 20577.9829  4.30%     -  535s
     0     0 20577.9873    0  279 21503.0000 20577.9873  4.30%     -  535s
     0     0 20577.9884    0  278 21503.0000 20577.9884  4.30%     -  535s
     0     0 20578.5379    0  277 21503.0000 20578.5379  4.30%     -  537s
     0     0 20578.5470    0  277 21503.0000 20578.5470  4.30%     -  538s
     0     0 20578.5498    0  278 21503.0000 20578.5498  4.30%     -  538s
     0     0 20578.5507    0  278 21503.0000 20578.5507  4.30%     -  538s
     0     0 20578.5520    0  279 21503.0000 20578.5520  4.30%     -  538s
     0     0 20578.5526    0  279 21503.0000 20578.5526  4.30%     -  539s
     0     0 20578.5529    0  277 21503.0000 20578.5529  4.30%     -  539s
     0     0 20578.5531    0  276 21503.0000 20578.5531  4.30%     -  539s
     0     0 20578.5532    0  277 21503.0000 20578.5532  4.30%     -  539s
     0     0 20578.5533    0  277 21503.0000 20578.5533  4.30%     -  539s
     0     0 20578.5533    0  278 21503.0000 20578.5533  4.30%     -  539s
     0     0 20585.7969    0  298 21503.0000 20585.7969  4.27%     -  549s
     0     0 20585.9442    0  298 21503.0000 20585.9442  4.26%     -  551s
     0     0 20586.0051    0  295 21503.0000 20586.0051  4.26%     -  552s
     0     0 20586.0369    0  297 21503.0000 20586.0369  4.26%     -  552s
     0     0 20586.0602    0  304 21503.0000 20586.0602  4.26%     -  553s
     0     0 20586.0765    0  297 21503.0000 20586.0765  4.26%     -  553s
     0     0 20586.0847    0  301 21503.0000 20586.0847  4.26%     -  554s
     0     0 20586.0931    0  301 21503.0000 20586.0931  4.26%     -  554s
     0     0 20586.0949    0  299 21503.0000 20586.0949  4.26%     -  554s
     0     0 20586.0979    0  299 21503.0000 20586.0979  4.26%     -  555s
     0     0 20586.0991    0  299 21503.0000 20586.0991  4.26%     -  555s
     0     0 20586.3054    0  302 21503.0000 20586.3054  4.26%     -  560s
     0     0 20586.3213    0  300 21503.0000 20586.3213  4.26%     -  561s
     0     0 20586.3368    0  299 21503.0000 20586.3368  4.26%     -  561s
     0     0 20586.3398    0  304 21503.0000 20586.3398  4.26%     -  562s
     0     0 20586.3497    0  301 21503.0000 20586.3497  4.26%     -  562s
     0     0 20586.3551    0  297 21503.0000 20586.3551  4.26%     -  563s
     0     0 20586.3569    0  300 21503.0000 20586.3569  4.26%     -  563s
     0     0 20586.3581    0  300 21503.0000 20586.3581  4.26%     -  563s
     0     0 20586.3605    0  299 21503.0000 20586.3605  4.26%     -  563s
     0     0 20586.3613    0  298 21503.0000 20586.3613  4.26%     -  564s
     0     0 20586.3627    0  298 21503.0000 20586.3627  4.26%     -  564s
     0     0 20586.3795    0  300 21503.0000 20586.3795  4.26%     -  564s
     0     0 20586.3813    0  300 21503.0000 20586.3813  4.26%     -  565s
     0     0 20586.3823    0  299 21503.0000 20586.3823  4.26%     -  565s
     0     0 20586.3827    0  298 21503.0000 20586.3827  4.26%     -  565s
     0     0 20586.3835    0  298 21503.0000 20586.3835  4.26%     -  565s
     0     0 20586.3841    0  298 21503.0000 20586.3841  4.26%     -  565s
     0     0 20586.3842    0  300 21503.0000 20586.3842  4.26%     -  566s
     0     0 20586.3852    0  302 21503.0000 20586.3852  4.26%     -  566s
     0     0 20586.3853    0  298 21503.0000 20586.3853  4.26%     -  566s
     0     0 20586.3856    0  298 21503.0000 20586.3856  4.26%     -  566s
     0     0 20586.3858    0  299 21503.0000 20586.3858  4.26%     -  566s
     0     0 20590.4944    0  310 21503.0000 20590.4944  4.24%     -  574s
     0     0 20590.5980    0  317 21503.0000 20590.5980  4.24%     -  575s
     0     0 20590.6426    0  313 21503.0000 20590.6426  4.24%     -  576s
     0     0 20590.6631    0  313 21503.0000 20590.6631  4.24%     -  577s
     0     0 20590.6666    0  312 21503.0000 20590.6666  4.24%     -  577s
     0     0 20590.6678    0  312 21503.0000 20590.6678  4.24%     -  577s
     0     0 20590.6680    0  312 21503.0000 20590.6680  4.24%     -  578s
     0     0 20590.6686    0  314 21503.0000 20590.6686  4.24%     -  578s
     0     0 20590.6687    0  313 21503.0000 20590.6687  4.24%     -  578s
     0     0 20590.6689    0  312 21503.0000 20590.6689  4.24%     -  578s
     0     0 20590.6689    0  312 21503.0000 20590.6689  4.24%     -  578s
     0     0 20590.8033    0  315 21503.0000 20590.8033  4.24%     -  587s
     0     0 20590.8187    0  319 21503.0000 20590.8187  4.24%     -  587s
     0     0 20590.8203    0  316 21503.0000 20590.8203  4.24%     -  587s
     0     0 20590.8210    0  317 21503.0000 20590.8210  4.24%     -  588s
     0     0 20590.8213    0  318 21503.0000 20590.8213  4.24%     -  588s
     0     0 20590.8217    0  317 21503.0000 20590.8217  4.24%     -  588s
     0     0 20590.8217    0  317 21503.0000 20590.8217  4.24%     -  588s
     0     0 20590.8217    0  317 21503.0000 20590.8217  4.24%     -  588s
     0     0 20590.8217    0  317 21503.0000 20590.8217  4.24%     -  588s
     0     0 20594.2462    0  330 21503.0000 20594.2462  4.23%     -  596s
     0     0 20594.3261    0  332 21503.0000 20594.3261  4.23%     -  598s
     0     0 20594.3522    0  332 21503.0000 20594.3522  4.23%     -  599s
     0     0 20594.3679    0  333 21503.0000 20594.3679  4.23%     -  599s
     0     0 20594.3743    0  332 21503.0000 20594.3743  4.23%     -  600s
     0     0 20594.3795    0  333 21503.0000 20594.3795  4.23%     -  600s
     0     0 20594.3841    0  334 21503.0000 20594.3841  4.23%     -  601s
     0     0 20594.3846    0  333 21503.0000 20594.3846  4.23%     -  601s
     0     0 20594.3851    0  333 21503.0000 20594.3851  4.23%     -  601s
     0     0 20594.3852    0  331 21503.0000 20594.3852  4.23%     -  601s
     0     0 20594.3857    0  333 21503.0000 20594.3857  4.23%     -  601s
     0     0 20594.4045    0  332 21503.0000 20594.4045  4.23%     -  625s
     0     0 20594.4073    0  330 21503.0000 20594.4073  4.23%     -  625s
     0     0 20594.4079    0  327 21503.0000 20594.4079  4.23%     -  626s
     0     0 20594.4087    0  333 21503.0000 20594.4087  4.23%     -  626s
     0     0 20594.4088    0  333 21503.0000 20594.4088  4.23%     -  626s
     0     0 20594.4088    0  333 21503.0000 20594.4088  4.23%     -  626s
     0     0 20594.4088    0  333 21503.0000 20594.4088  4.23%     -  626s
     0     0 20597.2479    0  334 21503.0000 20597.2479  4.21%     -  634s
     0     0 20597.2991    0  338 21503.0000 20597.2991  4.21%     -  635s
     0     0 20597.3287    0  337 21503.0000 20597.3287  4.21%     -  636s
     0     0 20597.3415    0  337 21503.0000 20597.3415  4.21%     -  637s
     0     0 20597.3440    0  336 21503.0000 20597.3440  4.21%     -  637s
     0     0 20597.3474    0  336 21503.0000 20597.3474  4.21%     -  638s
     0     0 20597.3484    0  336 21503.0000 20597.3484  4.21%     -  638s
     0     0 20597.3485    0  335 21503.0000 20597.3485  4.21%     -  638s
     0     0 20597.4291    0  338 21503.0000 20597.4291  4.21%     -  640s
     0     0 20597.4303    0  335 21503.0000 20597.4303  4.21%     -  640s
     0     0 20597.4306    0  337 21503.0000 20597.4306  4.21%     -  641s
     0     0 20597.4307    0  338 21503.0000 20597.4307  4.21%     -  641s
     0     0 20599.3344    0  347 21503.0000 20599.3344  4.20%     -  648s
     0     0 20599.3943    0  352 21503.0000 20599.3943  4.20%     -  650s
     0     0 20599.4122    0  356 21503.0000 20599.4122  4.20%     -  651s
     0     0 20599.4176    0  353 21503.0000 20599.4176  4.20%     -  651s
     0     0 20599.4237    0  355 21503.0000 20599.4237  4.20%     -  652s
     0     0 20599.4244    0  351 21503.0000 20599.4244  4.20%     -  652s
     0     0 20599.4258    0  350 21503.0000 20599.4258  4.20%     -  653s
     0     0 20599.4260    0  351 21503.0000 20599.4260  4.20%     -  653s
     0     0 20599.4263    0  352 21503.0000 20599.4263  4.20%     -  653s
     0     0 20599.4264    0  351 21503.0000 20599.4264  4.20%     -  653s
     0     0 20599.4265    0  351 21503.0000 20599.4265  4.20%     -  653s
     0     0 20599.4265    0  349 21503.0000 20599.4265  4.20%     -  656s
H    0     2                    21458.000000 20599.4265  4.00%     -  677s
     0     2 20599.4265    0  349 21458.0000 20599.4265  4.00%     -  677s
     1     4 20600.3380    1  343 21458.0000 20599.4265  4.00%   748  691s
     3     8 20602.7650    2  338 21458.0000 20600.3380  4.00%  1243  705s
     7    12 20603.7499    3  338 21458.0000 20602.7650  3.99%  1394  712s
H    8    12                    21046.000000 20602.7650  2.11%  1220  712s
    11    16 20654.7843    3  289 21046.0000 20603.7499  2.10%  1437  727s
    15    20 20611.1172    4  324 21046.0000 20603.7499  2.10%  1615  736s
    20    21 20603.7499    0  142 21046.0000 20603.7499  2.10%  1444 1105s
    22    22 20603.7499    0  115 21046.0000 20603.7499  2.10%  1312 1118s
H   22    20                    20793.000000 20603.7499  0.91%  1312 1122s
    25    22 20603.7499    0  199 20793.0000 20603.7499  0.91%  1155 1125s
    27    25 20603.7499    0  142 20793.0000 20603.7499  0.91%  1357 1140s
    31    28 20608.2937    0  156 20793.0000 20608.2937  0.89%  1182 1145s
    34    31 20624.6865    0  142 20793.0000 20624.6865  0.81%  1247 1150s
    45    40 20680.9288    0  142 20793.0000 20680.9288  0.54%  1070 1155s

Cutting planes:
  Clique: 35
  Zero half: 2
  RLT: 51

Explored 51 nodes (233589 simplex iterations) in 1156.71 seconds (1310.37 work units)
Thread count was 8 (of 8 available processors)

Solution count 6: 20793 21046 21458 ... 30629

Optimal solution found (tolerance 1.00e-04)
Best objective 2.079300000000e+04, best bound 2.079300000000e+04, gap 0.0000%

User-callback calls 73421, time in user-callback 0.21 sec

=========================

OUTPUT STATISTICS
Relaxed: false
Time since start: 1509.2742149829865
SetUpTime: 346.77719807624817
Objective value: 20793.0
Number of variables: 190707
Solving time: 1162.3884439468384
